40	100	100	100
44	89	68
17	76	82
49	92	93
14	67	87
26	74	75
43	75	88
16	94	95
33	82	84
18	79	78
23	95	72
33	99	86
36	79	78
25	79	90
23	85	74
32	73	90
41	76	93
21	97	89
37	68	80
28	83	97
19	88	86
43	82	77
39	81	78
46	88	73
21	82	90
15	77	78
10	71	90
18	66	80
43	67	92
6	97	66
44	87	72
12	86	88
37	90	94
6	76	86
30	71	84
2	89	68
45	78	80
5	84	77
28	81	85
47	66	69
15	98	77
